
Gurobi 12.0.2 (win64) logging started Sun Jun  8 11:32:20 2025

Set parameter LogFile to value "C:\Ioana\_uni\honours\slp\algorithm\Main_files\results\others\prox_tubules_new_model\Task_002_Sample005_irr_gurobi.log"
Gurobi Optimizer version 12.0.2 build v12.0.2rc0 (win64 - Windows 11.0 (26100.2))

CPU model: Intel(R) Core(TM) Ultra 5 125H, instruction set [SSE2|AVX|AVX2]
Thread count: 14 physical cores, 18 logical processors, using up to 18 threads

Non-default parameters:
TimeLimit  2200

Optimize a model with 47226 rows, 34496 columns and 146683 nonzeros
Model fingerprint: 0xacfcbbd9
Variable types: 17251 continuous, 17245 integer (17245 binary)
Coefficient statistics:
  Matrix range     [1e-04, 8e+04]
  Objective range  [5e-05, 3e+00]
  Bounds range     [1e+00, 1e+03]
  RHS range        [1e+00, 1e+00]
Presolve removed 30821 rows and 21542 columns
Presolve time: 0.31s
Presolved: 16405 rows, 12954 columns, 54582 nonzeros
Variable types: 6409 continuous, 6545 integer (6545 binary)

Root relaxation: objective 1.813782e-03, 2990 iterations, 0.21 seconds (0.39 work units)

    Nodes    |    Current Node    |     Objective Bounds      |     Work
 Expl Unexpl |  Obj  Depth IntInf | Incumbent    BestBd   Gap | It/Node Time

     0     0    0.00181    0    4          -    0.00181      -     -    0s
H    0     0                       1.8137817    0.00181   100%     -    0s
     0     0    0.93128    0    4    1.81378    0.93128  48.7%     -    0s
     0     0    0.93130    0    4    1.81378    0.93130  48.7%     -    0s
     0     0    0.93747    0    1    1.81378    0.93747  48.3%     -    0s
     0     0    0.95438    0    3    1.81378    0.95438  47.4%     -    1s
     0     0          -    0         1.81378    1.81378  0.00%     -    1s

Explored 1 nodes (4199 simplex iterations) in 1.12 seconds (1.35 work units)
Thread count was 18 (of 18 available processors)

Solution count 1: 1.81378 

Optimal solution found (tolerance 1.00e-04)
Best objective 1.813781661806e+00, best bound 1.813781659663e+00, gap 0.0000%
